db/data/71981332922232111251593625593205621783.z3.out
sat
-------------------
232.851343868
